c CNF file corresponding to a (partial) station packing problem.
p cnf 2888 229
1 2 3 4 5 6 7 8 9 10 11 12 13 14 0
-1 -2 0
-1 -3 0
-1 -4 0
-1 -5 0
-1 -6 0
-1 -7 0
-1 -8 0
-1 -9 0
-1 -10 0
-1 -11 0
-1 -12 0
-1 -13 0
-1 -14 0
-2 -3 0
-2 -4 0
-2 -5 0
-2 -6 0
-2 -7 0
-2 -8 0
-2 -9 0
-2 -10 0
-2 -11 0
-2 -12 0
-2 -13 0
-2 -14 0
-3 -4 0
-3 -5 0
-3 -6 0
-3 -7 0
-3 -8 0
-3 -9 0
-3 -10 0
-3 -11 0
-3 -12 0
-3 -13 0
-3 -14 0
-4 -5 0
-4 -6 0
-4 -7 0
-4 -8 0
-4 -9 0
-4 -10 0
-4 -11 0
-4 -12 0
-4 -13 0
-4 -14 0
-5 -6 0
-5 -7 0
-5 -8 0
-5 -9 0
-5 -10 0
-5 -11 0
-5 -12 0
-5 -13 0
-5 -14 0
-6 -7 0
-6 -8 0
-6 -9 0
-6 -10 0
-6 -11 0
-6 -12 0
-6 -13 0
-6 -14 0
-7 -8 0
-7 -9 0
-7 -10 0
-7 -11 0
-7 -12 0
-7 -13 0
-7 -14 0
-8 -9 0
-8 -10 0
-8 -11 0
-8 -12 0
-8 -13 0
-8 -14 0
-9 -10 0
-9 -11 0
-9 -12 0
-9 -13 0
-9 -14 0
-10 -11 0
-10 -12 0
-10 -13 0
-10 -14 0
-11 -12 0
-11 -13 0
-11 -14 0
-12 -13 0
-12 -14 0
-13 -14 0
2872 2873 2874 2875 2876 2877 2878 2879 2880 2881 2882 2883 2884 2885 2886 2887 2888 0
-2872 -2873 0
-2872 -2874 0
-2872 -2875 0
-2872 -2876 0
-2872 -2877 0
-2872 -2878 0
-2872 -2879 0
-2872 -2880 0
-2872 -2881 0
-2872 -2882 0
-2872 -2883 0
-2872 -2884 0
-2872 -2885 0
-2872 -2886 0
-2872 -2887 0
-2872 -2888 0
-2873 -2874 0
-2873 -2875 0
-2873 -2876 0
-2873 -2877 0
-2873 -2878 0
-2873 -2879 0
-2873 -2880 0
-2873 -2881 0
-2873 -2882 0
-2873 -2883 0
-2873 -2884 0
-2873 -2885 0
-2873 -2886 0
-2873 -2887 0
-2873 -2888 0
-2874 -2875 0
-2874 -2876 0
-2874 -2877 0
-2874 -2878 0
-2874 -2879 0
-2874 -2880 0
-2874 -2881 0
-2874 -2882 0
-2874 -2883 0
-2874 -2884 0
-2874 -2885 0
-2874 -2886 0
-2874 -2887 0
-2874 -2888 0
-2875 -2876 0
-2875 -2877 0
-2875 -2878 0
-2875 -2879 0
-2875 -2880 0
-2875 -2881 0
-2875 -2882 0
-2875 -2883 0
-2875 -2884 0
-2875 -2885 0
-2875 -2886 0
-2875 -2887 0
-2875 -2888 0
-2876 -2877 0
-2876 -2878 0
-2876 -2879 0
-2876 -2880 0
-2876 -2881 0
-2876 -2882 0
-2876 -2883 0
-2876 -2884 0
-2876 -2885 0
-2876 -2886 0
-2876 -2887 0
-2876 -2888 0
-2877 -2878 0
-2877 -2879 0
-2877 -2880 0
-2877 -2881 0
-2877 -2882 0
-2877 -2883 0
-2877 -2884 0
-2877 -2885 0
-2877 -2886 0
-2877 -2887 0
-2877 -2888 0
-2878 -2879 0
-2878 -2880 0
-2878 -2881 0
-2878 -2882 0
-2878 -2883 0
-2878 -2884 0
-2878 -2885 0
-2878 -2886 0
-2878 -2887 0
-2878 -2888 0
-2879 -2880 0
-2879 -2881 0
-2879 -2882 0
-2879 -2883 0
-2879 -2884 0
-2879 -2885 0
-2879 -2886 0
-2879 -2887 0
-2879 -2888 0
-2880 -2881 0
-2880 -2882 0
-2880 -2883 0
-2880 -2884 0
-2880 -2885 0
-2880 -2886 0
-2880 -2887 0
-2880 -2888 0
-2881 -2882 0
-2881 -2883 0
-2881 -2884 0
-2881 -2885 0
-2881 -2886 0
-2881 -2887 0
-2881 -2888 0
-2882 -2883 0
-2882 -2884 0
-2882 -2885 0
-2882 -2886 0
-2882 -2887 0
-2882 -2888 0
-2883 -2884 0
-2883 -2885 0
-2883 -2886 0
-2883 -2887 0
-2883 -2888 0
-2884 -2885 0
-2884 -2886 0
-2884 -2887 0
-2884 -2888 0
-2885 -2886 0
-2885 -2887 0
-2885 -2888 0
-2886 -2887 0
-2886 -2888 0
-2887 -2888 0
